
Gurobi 9.0.1 (linux64) logging started Thu Apr 30 14:55:28 2020

Gurobi Optimizer version 9.0.1 build v9.0.1rc0 (linux64)
Optimize a model with 12677 rows, 12060 columns and 201690 nonzeros
Model fingerprint: 0x0a94f7ee
Variable types: 0 continuous, 12060 integer (12032 binary)
Coefficient statistics:
  Matrix range     [1e+00, 1e+01]
  Objective range  [3e+00, 1e+02]
  Bounds range     [1e+00, 1e+00]
  RHS range        [1e+00, 1e+00]

User MIP start produced solution with objective 980 (0.25s)
Loaded user MIP start with objective 980

Presolve removed 3752 rows and 3270 columns
Presolve time: 3.05s
Presolved: 8925 rows, 8790 columns, 167925 nonzeros
Variable types: 0 continuous, 8790 integer (8764 binary)

Root simplex log...

Iteration    Objective       Primal Inf.    Dual Inf.      Time
    2998    4.4900746e+02   1.537839e+03   0.000000e+00      5s
    6238    4.6449749e+02   2.417477e+03   0.000000e+00     10s
    8499    4.6773968e+02   9.675471e+02   0.000000e+00     15s
   10566    4.6842996e+02   2.533837e-02   0.000000e+00     20s
   10586    4.6842985e+02   0.000000e+00   0.000000e+00     20s

Root relaxation: objective 4.684299e+02, 10586 iterations, 16.93 seconds

    Nodes    |    Current Node    |     Objective Bounds      |     Work
 Expl Unexpl |  Obj  Depth IntInf | Incumbent    BestBd   Gap | It/Node Time

     0     0  468.42985    0 2171  980.00000  468.42985  52.2%     -   22s
     0     0  495.40971    0 2141  980.00000  495.40971  49.4%     -   75s
     0     0  496.44774    0 2127  980.00000  496.44774  49.3%     -   93s
     0     0  496.50609    0 2131  980.00000  496.50609  49.3%     -   97s
     0     0  496.51125    0 2110  980.00000  496.51125  49.3%     -   99s
     0     0  496.51138    0 2099  980.00000  496.51138  49.3%     -  100s
     0     0  516.38283    0 2065  980.00000  516.38283  47.3%     -  155s
     0     0  516.61536    0 2018  980.00000  516.61536  47.3%     -  167s
     0     0  516.61676    0 2004  980.00000  516.61676  47.3%     -  169s
     0     0  529.44035    0 2146  980.00000  529.44035  46.0%     -  254s
     0     0  530.16150    0 2154  980.00000  530.16150  45.9%     -  272s
     0     0  530.21782    0 2167  980.00000  530.21782  45.9%     -  277s
     0     0  530.22129    0 2159  980.00000  530.22129  45.9%     -  279s
     0     0  535.99855    0 2256  980.00000  535.99855  45.3%     -  375s
H    0     0                     952.0000000  535.99855  43.7%     -  376s
     0     0  537.47964    0 2203  952.00000  537.47964  43.5%     -  407s
     0     0  537.68861    0 2255  952.00000  537.68861  43.5%     -  423s
     0     0  537.72555    0 2252  952.00000  537.72555  43.5%     -  431s
     0     0  537.74215    0 2263  952.00000  537.74215  43.5%     -  435s
     0     0  538.57402    0 2273  952.00000  538.57402  43.4%     -  478s
     0     0  538.67303    0 2273  952.00000  538.67303  43.4%     -  491s
     0     0  538.68282    0 2272  952.00000  538.68282  43.4%     -  493s
     0     0  539.54177    0 2300  952.00000  539.54177  43.3%     -  523s
     0     0  539.69090    0 2284  952.00000  539.69090  43.3%     -  538s
     0     0  539.80629    0 2287  952.00000  539.80629  43.3%     -  550s
     0     0  539.81863    0 2278  952.00000  539.81863  43.3%     -  553s
     0     0  540.09305    0 2230  952.00000  540.09305  43.3%     -  580s
     0     0  540.16325    0 2262  952.00000  540.16325  43.3%     -  591s
     0     0  540.18181    0 2282  952.00000  540.18181  43.3%     -  596s
     0     0  540.77274    0 2258  952.00000  540.77274  43.2%     -  623s
     0     0  540.82614    0 2275  952.00000  540.82614  43.2%     -  634s
     0     0  540.85400    0 2278  952.00000  540.85400  43.2%     -  639s
     0     0  541.48091    0 2276  952.00000  541.48091  43.1%     -  663s
     0     0  541.55653    0 2305  952.00000  541.55653  43.1%     -  676s
     0     0  541.57159    0 2302  952.00000  541.57159  43.1%     -  681s
     0     0  542.14040    0 2274  952.00000  542.14040  43.1%     -  706s
     0     0  542.18348    0 2306  952.00000  542.18348  43.0%     -  717s
     0     0  542.19044    0 2289  952.00000  542.19044  43.0%     -  720s
     0     0  542.77246    0 2244  952.00000  542.77246  43.0%     -  746s
     0     0  542.82681    0 2254  952.00000  542.82681  43.0%     -  757s
     0     0  542.84364    0 2284  952.00000  542.84364  43.0%     -  762s
     0     0  543.07473    0 2271  952.00000  543.07473  43.0%     -  780s
     0     0  543.07473    0 2259  952.00000  543.07473  43.0%     -  787s
     0     2  543.08175    0 2248  952.00000  543.08175  43.0%     -  846s
     1     3  543.37334    1 2216  952.00000  543.08175  43.0%  4814  862s
     2     4  575.44222    1 2064  952.00000  543.37508  42.9% 32832 1110s
     3     5  544.58597    2 2248  952.00000  543.37598  42.9% 24726 1144s
     4     6  553.86256    2 2067  952.00000  544.58597  42.8% 27210 1277s
     5     7  545.33291    3 2206  952.00000  544.58597  42.8% 22993 1302s
     6     8  557.03203    3 2141  952.00000  545.33291  42.7% 25122 1435s
     7     9  545.66704    4 2214  952.00000  545.33291  42.7% 22061 1448s
     8    10  586.77753    4 1975  952.00000  545.66776  42.7% 29069 1789s
     9    11  546.32275    5 2217  952.00000  545.66776  42.7% 26407 1808s
    10    12  596.49127    5 1904  952.00000  546.32360  42.6% 26936 1900s
    11    13  546.68645    6 2177  952.00000  546.33123  42.6% 25094 1919s
    12    14  580.02696    7 2017  952.00000  546.33123  42.6% 25620 2018s
    13    15  547.32736    7 2172  952.00000  546.33123  42.6% 23976 2030s
    14    16  548.10458    8 2176  952.00000  546.33123  42.6% 22883 2056s
    15    17  573.23718    8 1988  952.00000  546.33123  42.6% 23357 2152s
    16    18  548.31459    9 2146  952.00000  546.33123  42.6% 22207 2166s
    17    19  549.10772   10 2169  952.00000  546.33123  42.6% 21488 2200s
    18    20  549.30711   11 2172  952.00000  546.33123  42.6% 20515 2214s
    19    21  570.39314   11 2033  952.00000  546.33123  42.6% 20962 2325s
    20    22  549.71700   12 2143  952.00000  546.33123  42.6% 20211 2342s
    21    23  574.18232   12 1978  952.00000  546.33123  42.6% 20744 2438s
    22    24  549.77646   13 2139  952.00000  546.33123  42.6% 19917 2448s
    23    25  576.64305   13 1967  952.00000  546.33123  42.6% 21529 2669s
    24    26  550.07037   14 2157  952.00000  546.33123  42.6% 20830 2748s
    25    27  570.06467   14 1995  952.00000  546.33123  42.6% 21162 2838s
    26    28  550.12643   15 2119  952.00000  546.33123  42.6% 20403 2842s
    27    29  571.53152   15 1986  952.00000  546.33123  42.6% 21041 2989s
    28    30  550.53010   16 2143  952.00000  546.33123  42.6% 20510 3009s
    29    31  573.49889   16 2024  952.00000  546.33123  42.6% 20830 3101s
    30    32  551.16775   17 2143  952.00000  546.33123  42.6% 20243 3113s
    31    33  574.50476   17 1980  952.00000  546.33123  42.6% 20483 3219s
    32    34  552.00933   18 2185  952.00000  546.33123  42.6% 20031 3245s
    33    35  570.13803   18 1939  952.00000  546.33123  42.6% 22057 3572s
    34    36  553.19804   19 2166  952.00000  546.33123  42.6% 21708 3599s

Cutting planes:
  MIR: 52
  StrongCG: 3
  Zero half: 37
  Mod-K: 5
  RLT: 1328

Explored 35 nodes (942573 simplex iterations) in 3600.01 seconds
Thread count was 1 (of 40 available processors)

Solution count 2: 952 980 

Time limit reached
Best objective 9.520000000000e+02, best bound 5.470000000000e+02, gap 42.5420%

User-callback calls 40170, time in user-callback 0.09 sec
